(set-logic QF_S)
(declare-fun var_0xINPUT_118566 () String)
(assert (and (= (len var_0xINPUT_118566) 0) (= (len var_0xINPUT_118566) 0) (not (= var_0xINPUT_118566 "pVEECEXk2p"))))
(check-sat var_0xINPUT_118566)